p edge 95 1444 75
e 1 2
e 1 3
e 1 4
e 1 5
e 1 6
e 1 7
e 1 8
e 1 9
e 1 10
e 1 11
e 1 12
e 1 13
e 1 14
e 1 15
e 1 16
e 1 17
e 1 18
e 1 19
e 1 20
e 1 21
e 1 22
e 1 23
e 1 24
e 1 25
e 1 26
e 1 27
e 1 28
e 1 29
e 1 30
e 1 31
e 1 32
e 1 33
e 1 35
e 1 36
e 1 37
e 1 39
e 1 40
e 1 43
e 1 44
e 1 45
e 1 49
e 1 51
e 1 53
e 1 55
e 1 56
e 1 59
e 1 60
e 1 61
e 1 62
e 1 64
e 1 66
e 1 67
e 1 73
e 1 74
e 1 77
e 1 78
e 1 82
e 1 83
e 1 86
e 1 88
e 1 89
e 1 90
e 1 92
e 1 94
e 1 95
e 2 21
e 2 22
e 2 23
e 2 25
e 2 27
e 2 30
e 2 31
e 2 32
e 2 34
e 2 35
e 2 36
e 2 38
e 2 39
e 2 45
e 2 46
e 2 48
e 2 50
e 2 53
e 2 57
e 2 58
e 2 59
e 2 62
e 2 65
e 2 68
e 2 70
e 2 74
e 2 78
e 2 82
e 2 86
e 2 91
e 2 93
e 3 21
e 3 22
e 3 23
e 3 24
e 3 27
e 3 28
e 3 29
e 3 30
e 3 33
e 3 43
e 3 45
e 3 50
e 3 51
e 3 53
e 3 54
e 3 59
e 3 73
e 3 79
e 3 81
e 3 87
e 3 91
e 3 92
e 4 21
e 4 22
e 4 23
e 4 24
e 4 26
e 4 27
e 4 28
e 4 29
e 4 30
e 4 31
e 4 32
e 4 33
e 4 34
e 4 36
e 4 38
e 4 43
e 4 45
e 4 46
e 4 47
e 4 48
e 4 49
e 4 50
e 4 54
e 4 62
e 4 65
e 4 66
e 4 71
e 4 73
e 4 75
e 4 90
e 4 94
e 4 95
e 5 21
e 5 22
e 5 23
e 5 25
e 5 26
e 5 27
e 5 28
e 5 29
e 5 34
e 5 40
e 5 54
e 5 59
e 5 60
e 5 61
e 5 81
e 5 95
e 6 21
e 6 22
e 6 23
e 6 24
e 6 25
e 6 26
e 6 28
e 6 30
e 6 33
e 6 35
e 6 39
e 6 40
e 6 41
e 6 43
e 6 45
e 6 46
e 6 47
e 6 49
e 6 51
e 6 54
e 6 55
e 6 58
e 6 60
e 6 64
e 6 65
e 6 79
e 6 85
e 6 87
e 7 21
e 7 22
e 7 23
e 7 24
e 7 25
e 7 26
e 7 27
e 7 28
e 7 31
e 7 32
e 7 33
e 7 34
e 7 41
e 7 43
e 7 44
e 7 45
e 7 46
e 7 52
e 7 60
e 7 62
e 7 64
e 7 78
e 7 90
e 7 95
e 8 21
e 8 22
e 8 24
e 8 26
e 8 27
e 8 28
e 8 33
e 8 37
e 8 47
e 8 54
e 8 66
e 8 89
e 8 91
e 9 21
e 9 22
e 9 23
e 9 24
e 9 25
e 9 29
e 9 30
e 9 31
e 9 34
e 9 35
e 9 36
e 9 38
e 9 40
e 9 41
e 9 49
e 9 53
e 9 55
e 9 56
e 9 58
e 9 60
e 9 67
e 9 70
e 9 78
e 9 87
e 9 90
e 9 92
e 10 21
e 10 22
e 10 23
e 10 24
e 10 25
e 10 26
e 10 29
e 10 33
e 10 34
e 10 35
e 10 36
e 10 37
e 10 41
e 10 42
e 10 46
e 10 47
e 10 48
e 10 49
e 10 50
e 10 51
e 10 52
e 10 57
e 10 59
e 10 60
e 10 63
e 10 64
e 10 65
e 10 73
e 10 75
e 10 87
e 10 92
e 11 22
e 11 23
e 11 24
e 11 26
e 11 31
e 11 32
e 11 34
e 11 35
e 11 36
e 11 37
e 11 44
e 11 45
e 11 47
e 11 54
e 11 55
e 11 58
e 11 61
e 11 68
e 11 72
e 11 76
e 11 81
e 11 86
e 12 21
e 12 23
e 12 24
e 12 25
e 12 27
e 12 28
e 12 29
e 12 36
e 12 38
e 12 41
e 12 49
e 12 55
e 12 56
e 12 58
e 12 60
e 12 61
e 12 69
e 12 70
e 12 75
e 12 81
e 12 85
e 12 87
e 12 88
e 12 90
e 12 93
e 13 21
e 13 22
e 13 24
e 13 30
e 13 33
e 13 35
e 13 38
e 13 41
e 13 42
e 13 46
e 13 52
e 13 57
e 13 74
e 13 86
e 14 21
e 14 22
e 14 23
e 14 24
e 14 25
e 14 26
e 14 27
e 14 30
e 14 31
e 14 32
e 14 33
e 14 35
e 14 37
e 14 38
e 14 39
e 14 40
e 14 53
e 14 54
e 14 60
e 14 62
e 14 65
e 14 67
e 14 69
e 14 73
e 14 74
e 14 75
e 14 77
e 14 86
e 14 90
e 14 93
e 15 21
e 15 22
e 15 23
e 15 24
e 15 25
e 15 26
e 15 29
e 15 31
e 15 32
e 15 33
e 15 35
e 15 37
e 15 38
e 15 39
e 15 40
e 15 41
e 15 42
e 15 44
e 15 45
e 15 46
e 15 55
e 15 57
e 15 58
e 15 63
e 15 69
e 15 71
e 15 73
e 15 75
e 15 82
e 15 83
e 15 85
e 15 87
e 15 89
e 15 94
e 16 21
e 16 22
e 16 23
e 16 24
e 16 25
e 16 26
e 16 27
e 16 29
e 16 30
e 16 32
e 16 36
e 16 39
e 16 41
e 16 44
e 16 48
e 16 50
e 16 52
e 16 53
e 16 56
e 16 58
e 16 59
e 16 65
e 16 75
e 16 76
e 16 79
e 16 82
e 16 85
e 16 90
e 16 95
e 17 21
e 17 23
e 17 25
e 17 26
e 17 27
e 17 28
e 17 30
e 17 32
e 17 33
e 17 45
e 17 46
e 17 58
e 17 60
e 17 61
e 17 69
e 17 75
e 17 77
e 17 81
e 17 90
e 18 21
e 18 22
e 18 23
e 18 25
e 18 26
e 18 27
e 18 28
e 18 32
e 18 36
e 18 44
e 18 51
e 18 54
e 18 59
e 18 62
e 18 63
e 18 69
e 18 75
e 18 76
e 18 77
e 18 79
e 18 81
e 18 83
e 18 91
e 18 94
e 19 21
e 19 22
e 19 23
e 19 24
e 19 25
e 19 28
e 19 29
e 19 31
e 19 34
e 19 37
e 19 41
e 19 48
e 19 50
e 19 52
e 19 53
e 19 55
e 19 57
e 19 66
e 19 72
e 19 75
e 19 82
e 19 85
e 19 90
e 19 91
e 20 21
e 20 22
e 20 24
e 20 25
e 20 26
e 20 27
e 20 28
e 20 29
e 20 30
e 20 31
e 20 32
e 20 33
e 20 34
e 20 35
e 20 36
e 20 38
e 20 39
e 20 40
e 20 42
e 20 44
e 20 47
e 20 48
e 20 50
e 20 54
e 20 56
e 20 61
e 20 62
e 20 64
e 20 67
e 20 69
e 20 70
e 20 71
e 20 73
e 20 74
e 20 77
e 20 78
e 20 80
e 20 83
e 20 84
e 20 89
e 21 22
e 21 23
e 21 24
e 21 25
e 21 26
e 21 27
e 21 28
e 21 29
e 21 30
e 21 31
e 21 32
e 21 34
e 21 35
e 21 36
e 21 37
e 21 38
e 21 39
e 21 40
e 21 42
e 21 44
e 21 45
e 21 46
e 21 47
e 21 48
e 21 49
e 21 50
e 21 51
e 21 54
e 21 55
e 21 57
e 21 58
e 21 60
e 21 62
e 21 66
e 21 68
e 21 72
e 21 76
e 21 77
e 21 79
e 21 84
e 21 87
e 21 89
e 21 90
e 21 92
e 22 23
e 22 24
e 22 25
e 22 26
e 22 27
e 22 28
e 22 29
e 22 30
e 22 31
e 22 32
e 22 34
e 22 35
e 22 36
e 22 37
e 22 38
e 22 39
e 22 40
e 22 41
e 22 42
e 22 43
e 22 50
e 22 51
e 22 52
e 22 53
e 22 55
e 22 57
e 22 59
e 22 62
e 22 64
e 22 66
e 22 67
e 22 69
e 22 71
e 22 73
e 22 76
e 22 80
e 22 83
e 22 84
e 22 86
e 22 87
e 22 90
e 22 91
e 22 92
e 22 93
e 22 94
e 22 95
e 23 24
e 23 25
e 23 26
e 23 27
e 23 28
e 23 29
e 23 30
e 23 31
e 23 32
e 23 33
e 23 34
e 23 36
e 23 37
e 23 39
e 23 40
e 23 42
e 23 43
e 23 44
e 23 46
e 23 47
e 23 48
e 23 49
e 23 52
e 23 53
e 23 56
e 23 57
e 23 61
e 23 62
e 23 63
e 23 64
e 23 66
e 23 68
e 23 69
e 23 70
e 23 72
e 23 77
e 23 78
e 23 79
e 23 80
e 23 81
e 23 84
e 23 87
e 23 88
e 23 93
e 23 95
e 24 25
e 24 26
e 24 27
e 24 28
e 24 29
e 24 30
e 24 31
e 24 32
e 24 34
e 24 35
e 24 36
e 24 37
e 24 38
e 24 39
e 24 41
e 24 43
e 24 44
e 24 45
e 24 46
e 24 47
e 24 48
e 24 49
e 24 51
e 24 52
e 24 54
e 24 55
e 24 57
e 24 61
e 24 63
e 24 65
e 24 66
e 24 67
e 24 70
e 24 71
e 24 74
e 24 77
e 24 78
e 24 79
e 24 81
e 24 86
e 24 91
e 24 92
e 24 93
e 24 94
e 24 95
e 25 26
e 25 27
e 25 28
e 25 29
e 25 30
e 25 31
e 25 33
e 25 34
e 25 35
e 25 36
e 25 38
e 25 39
e 25 40
e 25 41
e 25 42
e 25 44
e 25 45
e 25 46
e 25 48
e 25 51
e 25 52
e 25 57
e 25 58
e 25 59
e 25 65
e 25 66
e 25 84
e 25 85
e 25 87
e 25 93
e 26 27
e 26 28
e 26 29
e 26 30
e 26 31
e 26 32
e 26 35
e 26 36
e 26 37
e 26 40
e 26 41
e 26 42
e 26 43
e 26 46
e 26 47
e 26 48
e 26 51
e 26 53
e 26 55
e 26 57
e 26 58
e 26 61
e 26 62
e 26 64
e 26 65
e 26 66
e 26 67
e 26 68
e 26 69
e 26 70
e 26 71
e 26 72
e 26 74
e 26 81
e 26 82
e 26 85
e 26 86
e 26 88
e 26 90
e 26 91
e 26 92
e 26 93
e 27 28
e 27 29
e 27 30
e 27 33
e 27 34
e 27 38
e 27 39
e 27 42
e 27 43
e 27 47
e 27 48
e 27 49
e 27 50
e 27 52
e 27 55
e 27 56
e 27 57
e 27 62
e 27 64
e 27 66
e 27 67
e 27 70
e 27 72
e 27 79
e 27 80
e 27 81
e 27 84
e 27 86
e 27 88
e 28 29
e 28 31
e 28 32
e 28 33
e 28 35
e 28 37
e 28 38
e 28 41
e 28 42
e 28 46
e 28 49
e 28 53
e 28 54
e 28 56
e 28 57
e 28 59
e 28 62
e 28 63
e 28 64
e 28 69
e 28 70
e 28 72
e 28 81
e 28 82
e 28 86
e 28 88
e 28 90
e 28 93
e 29 30
e 29 31
e 29 35
e 29 38
e 29 39
e 29 40
e 29 42
e 29 43
e 29 44
e 29 46
e 29 49
e 29 53
e 29 56
e 29 59
e 29 61
e 29 62
e 29 66
e 29 68
e 29 72
e 29 74
e 29 76
e 29 77
e 29 78
e 29 80
e 29 81
e 29 82
e 29 84
e 29 85
e 29 91
e 30 31
e 30 32
e 30 33
e 30 34
e 30 35
e 30 36
e 30 38
e 30 39
e 30 40
e 30 41
e 30 43
e 30 44
e 30 45
e 30 46
e 30 47
e 30 50
e 30 52
e 30 54
e 30 55
e 30 57
e 30 59
e 30 62
e 30 64
e 30 68
e 30 70
e 30 71
e 30 72
e 30 77
e 30 78
e 30 81
e 30 82
e 30 84
e 30 87
e 30 90
e 31 32
e 31 33
e 31 34
e 31 36
e 31 37
e 31 38
e 31 39
e 31 40
e 31 42
e 31 43
e 31 47
e 31 48
e 31 51
e 31 55
e 31 56
e 31 57
e 31 61
e 31 64
e 31 65
e 31 67
e 31 71
e 31 75
e 31 79
e 31 83
e 31 86
e 31 87
e 31 92
e 31 95
e 32 33
e 32 34
e 32 37
e 32 38
e 32 39
e 32 41
e 32 42
e 32 44
e 32 45
e 32 46
e 32 48
e 32 49
e 32 52
e 32 53
e 32 54
e 32 56
e 32 57
e 32 58
e 32 61
e 32 63
e 32 65
e 32 66
e 32 71
e 32 72
e 32 77
e 32 79
e 32 81
e 32 83
e 32 84
e 32 87
e 32 89
e 32 90
e 32 92
e 33 34
e 33 37
e 33 41
e 33 43
e 33 49
e 33 52
e 33 55
e 33 63
e 33 64
e 33 67
e 33 68
e 33 70
e 33 71
e 33 74
e 33 76
e 33 77
e 33 82
e 33 86
e 33 90
e 34 35
e 34 37
e 34 40
e 34 41
e 34 42
e 34 44
e 34 47
e 34 52
e 34 56
e 34 57
e 34 60
e 34 63
e 34 67
e 34 69
e 34 70
e 34 73
e 34 79
e 34 80
e 34 83
e 34 89
e 34 90
e 34 95
e 35 36
e 35 37
e 35 39
e 35 43
e 35 44
e 35 45
e 35 48
e 35 49
e 35 50
e 35 51
e 35 53
e 35 56
e 35 58
e 35 59
e 35 63
e 35 69
e 35 70
e 35 71
e 35 73
e 35 74
e 35 75
e 35 77
e 35 79
e 35 83
e 35 85
e 35 91
e 35 94
e 36 37
e 36 38
e 36 42
e 36 43
e 36 45
e 36 48
e 36 51
e 36 53
e 36 57
e 36 58
e 36 60
e 36 62
e 36 68
e 36 69
e 36 72
e 36 73
e 36 76
e 36 78
e 36 79
e 36 80
e 36 82
e 36 87
e 36 88
e 36 92
e 36 94
e 37 40
e 37 46
e 37 50
e 37 51
e 37 61
e 37 65
e 37 67
e 37 76
e 37 83
e 37 88
e 38 39
e 38 40
e 38 42
e 38 43
e 38 46
e 38 48
e 38 50
e 38 51
e 38 52
e 38 54
e 38 55
e 38 60
e 38 63
e 38 65
e 38 68
e 38 73
e 38 80
e 38 82
e 38 84
e 38 85
e 38 88
e 38 89
e 38 91
e 39 40
e 39 42
e 39 43
e 39 45
e 39 48
e 39 50
e 39 55
e 39 57
e 39 58
e 39 59
e 39 60
e 39 63
e 39 65
e 39 68
e 39 75
e 39 77
e 39 86
e 39 88
e 39 93
e 39 94
e 39 95
e 40 41
e 40 43
e 40 44
e 40 45
e 40 47
e 40 49
e 40 51
e 40 53
e 40 55
e 40 56
e 40 58
e 40 71
e 40 72
e 40 73
e 40 75
e 40 76
e 40 84
e 40 90
e 40 94
e 41 42
e 41 44
e 41 47
e 41 50
e 41 59
e 41 61
e 41 65
e 41 68
e 41 72
e 41 73
e 41 74
e 41 79
e 41 80
e 41 82
e 41 83
e 41 88
e 41 90
e 41 91
e 42 44
e 42 45
e 42 47
e 42 52
e 42 54
e 42 61
e 42 72
e 42 74
e 42 75
e 42 76
e 42 80
e 42 81
e 42 82
e 42 87
e 43 47
e 43 49
e 43 53
e 43 54
e 43 68
e 43 72
e 43 75
e 43 95
e 44 48
e 44 49
e 44 52
e 44 56
e 44 59
e 44 64
e 44 73
e 44 74
e 44 76
e 44 80
e 44 86
e 45 50
e 45 52
e 45 63
e 45 65
e 45 66
e 45 68
e 45 71
e 45 72
e 45 74
e 45 79
e 45 92
e 45 93
e 45 95
e 46 47
e 46 50
e 46 51
e 46 54
e 46 58
e 46 59
e 46 60
e 46 65
e 46 67
e 46 68
e 46 74
e 46 76
e 46 81
e 46 83
e 46 84
e 46 88
e 46 92
e 46 95
e 47 49
e 47 51
e 47 52
e 47 53
e 47 54
e 47 71
e 47 75
e 47 95
e 48 50
e 48 51
e 48 56
e 48 60
e 48 63
e 48 67
e 48 72
e 48 78
e 48 91
e 48 92
e 49 60
e 49 61
e 49 64
e 49 66
e 49 67
e 49 68
e 49 80
e 49 85
e 49 91
e 49 92
e 50 56
e 50 59
e 50 67
e 50 69
e 50 76
e 50 77
e 50 80
e 50 86
e 50 95
e 51 56
e 51 61
e 51 63
e 51 69
e 51 74
e 51 79
e 51 84
e 51 85
e 51 86
e 51 91
e 51 93
e 52 53
e 52 56
e 52 58
e 52 62
e 52 64
e 52 66
e 52 68
e 52 71
e 52 73
e 52 74
e 52 82
e 52 85
e 52 86
e 52 88
e 52 94
e 53 61
e 53 63
e 53 64
e 53 66
e 53 68
e 53 69
e 53 77
e 53 85
e 53 89
e 53 94
e 54 55
e 54 61
e 54 75
e 54 80
e 54 84
e 55 58
e 55 59
e 55 60
e 55 63
e 55 66
e 55 70
e 55 82
e 55 84
e 55 87
e 56 63
e 56 69
e 56 71
e 56 76
e 56 78
e 56 89
e 56 92
e 57 60
e 57 63
e 57 67
e 57 70
e 57 73
e 57 84
e 57 85
e 58 64
e 58 65
e 58 67
e 58 80
e 58 82
e 58 83
e 58 85
e 58 86
e 58 95
e 59 62
e 59 78
e 59 82
e 60 71
e 60 88
e 60 89
e 61 62
e 61 92
e 62 68
e 62 69
e 62 70
e 62 73
e 62 76
e 62 83
e 62 85
e 62 92
e 63 64
e 63 71
e 63 75
e 63 81
e 63 83
e 63 88
e 63 89
e 64 65
e 64 69
e 64 74
e 64 82
e 64 88
e 64 93
e 64 94
e 65 66
e 65 79
e 65 87
e 65 93
e 66 67
e 66 71
e 66 72
e 67 70
e 67 78
e 67 79
e 67 80
e 67 85
e 67 92
e 67 95
e 68 70
e 68 73
e 68 76
e 68 77
e 68 78
e 68 85
e 68 91
e 68 94
e 69 70
e 69 74
e 69 75
e 69 77
e 69 83
e 70 72
e 70 76
e 70 78
e 70 81
e 70 83
e 71 88
e 72 76
e 72 80
e 72 89
e 73 78
e 73 89
e 73 91
e 73 93
e 74 78
e 74 80
e 74 81
e 74 88
e 74 89
e 74 94
e 75 84
e 75 89
e 76 77
e 76 78
e 76 80
e 76 93
e 77 79
e 77 83
e 77 93
e 78 89
e 79 83
e 79 84
e 79 86
e 79 88
e 79 94
e 81 91
e 82 84
e 82 94
e 83 87
e 83 89
e 83 93
e 84 94
e 85 87
e 86 89
e 87 93
e 90 91
e 90 94
e 90 95
